WARNING: for repeatability, setting FPU to use double precision
============================[ Problem Statistics ]=============================
|                                                                             |
|  Number of variables:        205651                                         |
|  Number of clauses:          480189                                         |
|  Parse time:                   0.15 s                                       |
|                                                                             |
============================[ Search Statistics ]==============================
| Conflicts |          ORIGINAL         |          LEARNT          | Progress |
|           |    Vars  Clauses Literals |    Limit  Clauses Lit/Cl |          |
===============================================================================
|       100 |  114048   461327  1035502 |   169153      100     12 | 44.543 % |
|       250 |  114048   461327  1035502 |   186068      250     25 | 44.543 % |
|       475 |  114048   461327  1035502 |   204675      475     27 | 44.543 % |
|       812 |  114048   461327  1035502 |   225142      812     37 | 44.543 % |
|      1318 |  114048   461327  1035502 |   247657     1318     38 | 44.543 % |
===============================================================================
restarts              : 11
conflicts             : 1621           (2342 /sec)
decisions             : 21370          (0.00 % random) (30880 /sec)
propagations          : 3865729        (5585966 /sec)
conflict literals     : 60338          (6.94 % deleted)
Memory used           : 52.00 MB
CPU time              : 0.692043 s

SATISFIABLE
